 14 4
 0 456 1 856 2 963 3 696
 0 789 1 930 2  21 3 320
 0 630 1 214 2 475 3 142
 0 214 1 257 2 320 3 753
 0 573 1 896 2 124 3 214
 0 218 1 532 2 752 3 528
 0 653 1 142 2 147 3 653
 0 214 1 547 2 532 3 214
 0 204 1 865 2 145 3 527
 0 785 1 321 2 763 3 536
 0 696 1 124 2 214 3 214
 0 532 1  12 2 257 3 528
 0  12 1 345 2 854 3 888
 0 457 1 678 2 123 3 999

